DIMENSION: 20
EDGE_WEIGHT_TYPE: EXPLICIT
EDGE_WEIGHT_FORMAT: FULL_MATRIX
EDGE_WEIGHT_SECTION:
32767 75 75 61 32767 32767 32767 32767 32767 32767 32767 32767 32767 46 32767 34 18 18 88 89 
75 32767 11 39 87 68 82 32767 2 32767 32767 32767 57 32767 32767 36 32767 32767 32767 32767 
75 11 32767 32767 87 26 26 13 10 32767 60 32767 66 32767 32767 41 63 32767 32767 6 
61 39 32767 32767 32767 32767 50 32767 37 32767 62 32767 32767 32767 32767 32767 84 32767 99 77 
32767 87 87 32767 32767 32767 32767 32767 32767 40 32767 97 54 32767 97 92 31 44 27 32767 
32767 68 26 32767 32767 32767 32767 81 32767 79 71 85 13 32767 32767 20 32767 32767 34 32767 
32767 82 26 50 32767 32767 32767 32767 32767 32767 22 32767 51 32767 32767 75 32767 21 42 32767 
32767 32767 13 32767 32767 81 32767 32767 32767 32767 32767 32767 32767 32767 87 32767 32767 72 32767 32767 
32767 2 10 37 32767 32767 32767 32767 32767 32767 32767 85 32767 35 49 32767 49 32767 79 17 
32767 32767 32767 32767 40 79 32767 32767 32767 32767 32767 32767 32767 32767 9 32767 46 11 78 80 
32767 32767 60 62 32767 71 22 32767 32767 32767 32767 32767 64 81 32767 32767 24 32767 98 32767 
32767 32767 32767 32767 97 85 32767 32767 85 32767 32767 32767 14 32767 7 32767 32767 32767 4 32767 
32767 57 66 32767 54 13 51 32767 32767 32767 64 14 32767 79 32767 32767 71 32767 32767 32767 
46 32767 32767 32767 32767 32767 32767 32767 35 32767 81 32767 79 32767 31 23 32767 46 65 95 
32767 32767 32767 32767 97 32767 32767 87 49 9 32767 7 32767 31 32767 32767 3 32767 11 35 
34 36 41 32767 92 20 75 32767 32767 32767 32767 32767 32767 23 32767 32767 32767 32767 32767 76 
18 32767 63 84 31 32767 32767 32767 49 46 24 32767 71 32767 3 32767 32767 32767 32767 32767 
18 32767 32767 32767 44 32767 21 72 32767 11 32767 32767 32767 46 32767 32767 32767 32767 32767 32767 
88 32767 32767 99 27 34 42 32767 79 78 98 4 32767 65 11 32767 32767 32767 32767 32767 
89 32767 6 77 32767 32767 32767 32767 17 80 32767 32767 32767 95 35 76 32767 32767 32767 32767 
EOF